NAME : morphed20-2-8
COMMENT : Generated using the function morphInstances from the R-package netgen (Bossek,2015) - Number of clusters: 2 Alpha: 0.5
TYPE : TSP
DIMENSION : 20
EDGE_WEIGHT_TYPE : EUC_2D
NODE_COORD_SECTION
1 35.2406717404 20.678992977
2 19.4533588201 34.6571083348
3 83.5137363532 71.3841741378
4 47.7907569527 17.4496393382
5 61.034305983 75.2786485342
6 85.0715249203 98.3699177397
7 19.1394094297 5.7357411742
8 93.2329656781 70.3324476984
9 84.4238097731 66.4870532719
10 79.8945860459 85.1577014975
11 35.8986115676 17.3040510646
12 10.4920108361 43.5950863489
13 66.3717896582 92.3066823007
14 32.6016160166 12.345946758
15 14.6481013093 35.1753781102
16 95.0379754479 51.8573098439
17 1.0055473067 65.9197972775
18 62.540419442 92.9097478406
19 22.8883239029 33.7701838122
20 71.358907254 79.9542910559
EOF
